p cnf 430 1488
-191 -56 0
-191 -183 0
-191 111 0
-191 -74 0
-191 -165 0
191 56 183 -111 74 165 0
-192 -14 0
-192 -85 0
-192 164 0
-192 -147 0
-192 -116 0
192 14 85 -164 147 116 0
-193 -157 0
-193 37 0
-193 -67 0
-193 -1 0
-193 -12 0
193 157 -37 67 1 12 0
-194 -181 0
-194 -50 0
-194 -162 0
-194 -61 0
-194 -42 0
194 181 50 162 61 42 0
-195 138 0
-195 139 0
-195 -96 0
-195 -52 0
-195 -180 0
195 -138 -139 96 52 180 0
191 192 193 194 195 0
-196 50 0
-196 -133 0
-196 -104 0
-196 -138 0
-196 183 0
196 -50 133 104 138 -183 0
-197 -4 0
-197 116 0
-197 70 0
-197 -21 0
-197 -78 0
197 4 -116 -70 21 78 0
-198 -120 0
-198 135 0
-198 131 0
-198 -72 0
-198 114 0
198 120 -135 -131 72 -114 0
-199 146 0
-199 -178 0
-199 143 0
-199 -72 0
-199 98 0
199 -146 178 -143 72 -98 0
-200 59 0
-200 -106 0
-200 6 0
-200 -186 0
-200 127 0
200 -59 106 -6 186 -127 0
196 197 198 199 200 0
-201 118 0
-201 -73 0
-201 85 0
-201 -113 0
-201 -57 0
201 -118 73 -85 113 57 0
-202 -76 0
-202 -143 0
-202 -5 0
-202 -37 0
-202 -39 0
202 76 143 5 37 39 0
-203 103 0
-203 39 0
-203 129 0
-203 -136 0
-203 -185 0
203 -103 -39 -129 136 185 0
-204 -39 0
-204 77 0
-204 -132 0
-204 150 0
-204 -80 0
204 39 -77 132 -150 80 0
-205 167 0
-205 31 0
-205 6 0
-205 74 0
-205 44 0
205 -167 -31 -6 -74 -44 0
201 202 203 204 205 0
-206 -117 0
-206 -185 0
-206 -187 0
-206 5 0
-206 -145 0
206 117 185 187 -5 145 0
-207 -88 0
-207 174 0
-207 179 0
-207 -59 0
-207 58 0
207 88 -174 -179 59 -58 0
-208 -71 0
-208 -103 0
-208 -113 0
-208 -42 0
-208 -102 0
208 71 103 113 42 102 0
-209 -82 0
-209 -134 0
-209 -158 0
-209 -107 0
-209 -31 0
209 82 134 158 107 31 0
-210 80 0
-210 68 0
-210 -101 0
-210 -50 0
-210 20 0
210 -80 -68 101 50 -20 0
206 207 208 209 210 0
-211 -151 0
-211 -96 0
-211 26 0
-211 105 0
-211 95 0
211 151 96 -26 -105 -95 0
-212 18 0
-212 -190 0
-212 104 0
-212 157 0
-212 93 0
212 -18 190 -104 -157 -93 0
-213 -44 0
-213 -116 0
-213 176 0
-213 -77 0
-213 82 0
213 44 116 -176 77 -82 0
-214 -37 0
-214 58 0
-214 79 0
-214 52 0
-214 184 0
214 37 -58 -79 -52 -184 0
-215 -74 0
-215 -172 0
-215 -170 0
-215 -75 0
-215 123 0
215 74 172 170 75 -123 0
211 212 213 214 215 0
-216 94 0
-216 -10 0
-216 -139 0
-216 -162 0
-216 -140 0
216 -94 10 139 162 140 0
-217 -113 0
-217 -82 0
-217 -105 0
-217 -115 0
-217 86 0
217 113 82 105 115 -86 0
-218 76 0
-218 103 0
-218 -18 0
-218 -181 0
-218 82 0
218 -76 -103 18 181 -82 0
-219 50 0
-219 -4 0
-219 46 0
-219 37 0
-219 -188 0
219 -50 4 -46 -37 188 0
-220 176 0
-220 -83 0
-220 50 0
-220 -185 0
-220 31 0
220 -176 83 -50 185 -31 0
216 217 218 219 220 0
-221 -38 0
-221 -166 0
-221 -163 0
-221 -100 0
-221 59 0
221 38 166 163 100 -59 0
-222 -168 0
-222 119 0
-222 -166 0
-222 185 0
-222 24 0
222 168 -119 166 -185 -24 0
-223 121 0
-223 92 0
-223 -84 0
-223 65 0
-223 -157 0
223 -121 -92 84 -65 157 0
-224 94 0
-224 8 0
-224 -44 0
-224 21 0
-224 47 0
224 -94 -8 44 -21 -47 0
-225 -169 0
-225 147 0
-225 -188 0
-225 154 0
-225 -76 0
225 169 -147 188 -154 76 0
221 222 223 224 225 0
-226 -115 0
-226 150 0
-226 53 0
-226 -39 0
-226 182 0
226 115 -150 -53 39 -182 0
-227 -40 0
-227 46 0
-227 140 0
-227 -95 0
-227 -11 0
227 40 -46 -140 95 11 0
-228 -19 0
-228 -99 0
-228 -80 0
-228 33 0
-228 -164 0
228 19 99 80 -33 164 0
-229 97 0
-229 189 0
-229 140 0
-229 109 0
-229 52 0
229 -97 -189 -140 -109 -52 0
-230 91 0
-230 -94 0
-230 178 0
-230 56 0
-230 145 0
230 -91 94 -178 -56 -145 0
226 227 228 229 230 0
-231 -189 0
-231 -188 0
-231 105 0
-231 -8 0
-231 -10 0
231 189 188 -105 8 10 0
-232 -99 0
-232 60 0
-232 172 0
-232 -35 0
-232 1 0
232 99 -60 -172 35 -1 0
-233 -35 0
-233 89 0
-233 170 0
-233 12 0
-233 -98 0
233 35 -89 -170 -12 98 0
-234 183 0
-234 -104 0
-234 -6 0
-234 -64 0
-234 -90 0
234 -183 104 6 64 90 0
-235 4 0
-235 -138 0
-235 2 0
-235 34 0
-235 -42 0
235 -4 138 -2 -34 42 0
231 232 233 234 235 0
-236 -40 0
-236 38 0
-236 53 0
-236 -158 0
-236 -116 0
236 40 -38 -53 158 116 0
-237 139 0
-237 -42 0
-237 2 0
-237 -167 0
-237 19 0
237 -139 42 -2 167 -19 0
-238 -139 0
-238 142 0
-238 63 0
-238 -81 0
-238 -144 0
238 139 -142 -63 81 144 0
-239 -42 0
-239 184 0
-239 -47 0
-239 178 0
-239 -83 0
239 42 -184 47 -178 83 0
-240 -117 0
-240 -138 0
-240 -33 0
-240 124 0
-240 -185 0
240 117 138 33 -124 185 0
236 237 238 239 240 0
-241 -166 0
-241 184 0
-241 129 0
-241 -109 0
-241 86 0
241 166 -184 -129 109 -86 0
-242 -11 0
-242 -76 0
-242 -158 0
-242 -187 0
-242 74 0
242 11 76 158 187 -74 0
-243 136 0
-243 -62 0
-243 -181 0
-243 188 0
-243 91 0
243 -136 62 181 -188 -91 0
-244 28 0
-244 33 0
-244 69 0
-244 -97 0
-244 116 0
244 -28 -33 -69 97 -116 0
-245 -165 0
-245 -39 0
-245 156 0
-245 24 0
-245 -37 0
245 165 39 -156 -24 37 0
241 242 243 244 245 0
-246 -103 0
-246 -148 0
-246 -52 0
-246 -162 0
-246 82 0
246 103 148 52 162 -82 0
-247 95 0
-247 -3 0
-247 83 0
-247 168 0
-247 24 0
247 -95 3 -83 -168 -24 0
-248 18 0
-248 -56 0
-248 -167 0
-248 75 0
-248 -78 0
248 -18 56 167 -75 78 0
-249 -186 0
-249 -116 0
-249 68 0
-249 114 0
-249 187 0
249 186 116 -68 -114 -187 0
-250 33 0
-250 -156 0
-250 150 0
-250 -168 0
-250 -125 0
250 -33 156 -150 168 125 0
246 247 248 249 250 0
-251 86 0
-251 9 0
-251 -49 0
-251 187 0
-251 -4 0
251 -86 -9 49 -187 4 0
-252 78 0
-252 -121 0
-252 -84 0
-252 -51 0
-252 75 0
252 -78 121 84 51 -75 0
-253 11 0
-253 -48 0
-253 62 0
-253 -89 0
-253 36 0
253 -11 48 -62 89 -36 0
-254 -19 0
-254 14 0
-254 -28 0
-254 100 0
-254 -141 0
254 19 -14 28 -100 141 0
-255 -183 0
-255 -31 0
-255 17 0
-255 148 0
-255 -11 0
255 183 31 -17 -148 11 0
251 252 253 254 255 0
-256 90 0
-256 -20 0
-256 108 0
-256 31 0
-256 -97 0
256 -90 20 -108 -31 97 0
-257 -89 0
-257 -10 0
-257 187 0
-257 175 0
-257 136 0
257 89 10 -187 -175 -136 0
-258 151 0
-258 -6 0
-258 -95 0
-258 78 0
-258 149 0
258 -151 6 95 -78 -149 0
-259 -58 0
-259 -91 0
-259 -56 0
-259 -51 0
-259 -146 0
259 58 91 56 51 146 0
-260 -91 0
-260 -187 0
-260 -104 0
-260 119 0
-260 35 0
260 91 187 104 -119 -35 0
256 257 258 259 260 0
-261 -182 0
-261 147 0
-261 -106 0
-261 -172 0
-261 -59 0
261 182 -147 106 172 59 0
-262 -140 0
-262 -180 0
-262 149 0
-262 -102 0
-262 148 0
262 140 180 -149 102 -148 0
-263 -179 0
-263 -5 0
-263 163 0
-263 -41 0
-263 132 0
263 179 5 -163 41 -132 0
-264 9 0
-264 -73 0
-264 -54 0
-264 66 0
-264 -108 0
264 -9 73 54 -66 108 0
-265 138 0
-265 121 0
-265 25 0
-265 134 0
-265 -157 0
265 -138 -121 -25 -134 157 0
261 262 263 264 265 0
-266 177 0
-266 84 0
-266 94 0
-266 137 0
-266 118 0
266 -177 -84 -94 -137 -118 0
-267 55 0
-267 -117 0
-267 114 0
-267 71 0
-267 118 0
267 -55 117 -114 -71 -118 0
-268 -162 0
-268 -106 0
-268 38 0
-268 96 0
-268 -21 0
268 162 106 -38 -96 21 0
-269 -140 0
-269 -82 0
-269 61 0
-269 -174 0
-269 -3 0
269 140 82 -61 174 3 0
-270 107 0
-270 86 0
-270 15 0
-270 -13 0
-270 39 0
270 -107 -86 -15 13 -39 0
266 267 268 269 270 0
-271 -39 0
-271 137 0
-271 30 0
-271 -73 0
-271 -108 0
271 39 -137 -30 73 108 0
-272 -25 0
-272 86 0
-272 56 0
-272 23 0
-272 -189 0
272 25 -86 -56 -23 189 0
-273 119 0
-273 -1 0
-273 -182 0
-273 -187 0
-273 71 0
273 -119 1 182 187 -71 0
-274 190 0
-274 95 0
-274 93 0
-274 131 0
-274 118 0
274 -190 -95 -93 -131 -118 0
-275 -97 0
-275 -183 0
-275 -136 0
-275 -175 0
-275 -20 0
275 97 183 136 175 20 0
271 272 273 274 275 0
-276 17 0
-276 -166 0
-276 48 0
-276 161 0
-276 -122 0
276 -17 166 -48 -161 122 0
-277 -26 0
-277 160 0
-277 64 0
-277 129 0
-277 -89 0
277 26 -160 -64 -129 89 0
-278 135 0
-278 5 0
-278 -150 0
-278 128 0
-278 -79 0
278 -135 -5 150 -128 79 0
-279 72 0
-279 59 0
-279 130 0
-279 122 0
-279 137 0
279 -72 -59 -130 -122 -137 0
-280 148 0
-280 -172 0
-280 43 0
-280 34 0
-280 -54 0
280 -148 172 -43 -34 54 0
276 277 278 279 280 0
-281 134 0
-281 -166 0
-281 27 0
-281 -1 0
-281 -75 0
281 -134 166 -27 1 75 0
-282 188 0
-282 9 0
-282 141 0
-282 -117 0
-282 159 0
282 -188 -9 -141 117 -159 0
-283 3 0
-283 -52 0
-283 6 0
-283 141 0
-283 33 0
283 -3 52 -6 -141 -33 0
-284 -75 0
-284 99 0
-284 111 0
-284 186 0
-284 -141 0
284 75 -99 -111 -186 141 0
-285 77 0
-285 10 0
-285 109 0
-285 -46 0
-285 60 0
285 -77 -10 -109 46 -60 0
281 282 283 284 285 0
-286 166 0
-286 -172 0
-286 13 0
-286 64 0
-286 20 0
286 -166 172 -13 -64 -20 0
-287 164 0
-287 -89 0
-287 154 0
-287 166 0
-287 177 0
287 -164 89 -154 -166 -177 0
-288 24 0
-288 -100 0
-288 147 0
-288 18 0
-288 -107 0
288 -24 100 -147 -18 107 0
-289 16 0
-289 8 0
-289 167 0
-289 -175 0
-289 -1 0
289 -16 -8 -167 175 1 0
-290 156 0
-290 -68 0
-290 -31 0
-290 -22 0
-290 -55 0
290 -156 68 31 22 55 0
286 287 288 289 290 0
-291 43 0
-291 96 0
-291 -108 0
-291 -162 0
-291 -65 0
291 -43 -96 108 162 65 0
-292 183 0
-292 3 0
-292 -164 0
-292 187 0
-292 152 0
292 -183 -3 164 -187 -152 0
-293 113 0
-293 143 0
-293 -165 0
-293 -140 0
-293 -59 0
293 -113 -143 165 140 59 0
-294 -111 0
-294 160 0
-294 88 0
-294 -63 0
-294 -38 0
294 111 -160 -88 63 38 0
-295 68 0
-295 -183 0
-295 26 0
-295 122 0
-295 158 0
295 -68 183 -26 -122 -158 0
291 292 293 294 295 0
-296 95 0
-296 -126 0
-296 3 0
-296 158 0
-296 -131 0
296 -95 126 -3 -158 131 0
-297 -108 0
-297 120 0
-297 -168 0
-297 96 0
-297 -100 0
297 108 -120 168 -96 100 0
-298 74 0
-298 -174 0
-298 -63 0
-298 -163 0
-298 39 0
298 -74 174 63 163 -39 0
-299 38 0
-299 -121 0
-299 -170 0
-299 142 0
-299 -70 0
299 -38 121 170 -142 70 0
-300 6 0
-300 137 0
-300 -12 0
-300 83 0
-300 -109 0
300 -6 -137 12 -83 109 0
296 297 298 299 300 0
-301 -5 0
-301 116 0
-301 -11 0
-301 -97 0
-301 -98 0
301 5 -116 11 97 98 0
-302 12 0
-302 -175 0
-302 -171 0
-302 98 0
-302 -63 0
302 -12 175 171 -98 63 0
-303 -142 0
-303 113 0
-303 173 0
-303 141 0
-303 -73 0
303 142 -113 -173 -141 73 0
-304 135 0
-304 -95 0
-304 -88 0
-304 -48 0
-304 -2 0
304 -135 95 88 48 2 0
-305 48 0
-305 -111 0
-305 90 0
-305 -56 0
-305 -186 0
305 -48 111 -90 56 186 0
301 302 303 304 305 0
-306 -119 0
-306 -34 0
-306 116 0
-306 -82 0
-306 -72 0
306 119 34 -116 82 72 0
-307 29 0
-307 -31 0
-307 -82 0
-307 -139 0
-307 -116 0
307 -29 31 82 139 116 0
-308 27 0
-308 -188 0
-308 -90 0
-308 -179 0
-308 -3 0
308 -27 188 90 179 3 0
-309 180 0
-309 -166 0
-309 124 0
-309 -71 0
-309 145 0
309 -180 166 -124 71 -145 0
-310 95 0
-310 187 0
-310 -143 0
-310 -13 0
-310 86 0
310 -95 -187 143 13 -86 0
306 307 308 309 310 0
-311 93 0
-311 70 0
-311 -97 0
-311 -60 0
-311 -140 0
311 -93 -70 97 60 140 0
-312 39 0
-312 183 0
-312 46 0
-312 110 0
-312 188 0
312 -39 -183 -46 -110 -188 0
-313 -18 0
-313 148 0
-313 -123 0
-313 147 0
-313 -23 0
313 18 -148 123 -147 23 0
-314 39 0
-314 78 0
-314 127 0
-314 96 0
-314 -92 0
314 -39 -78 -127 -96 92 0
-315 129 0
-315 32 0
-315 -189 0
-315 -80 0
-315 -26 0
315 -129 -32 189 80 26 0
311 312 313 314 315 0
-316 -102 0
-316 -156 0
-316 -129 0
-316 -163 0
-316 -181 0
316 102 156 129 163 181 0
-317 21 0
-317 -100 0
-317 115 0
-317 54 0
-317 36 0
317 -21 100 -115 -54 -36 0
-318 159 0
-318 -97 0
-318 41 0
-318 133 0
-318 -161 0
318 -159 97 -41 -133 161 0
-319 -77 0
-319 -33 0
-319 -154 0
-319 123 0
-319 -22 0
319 77 33 154 -123 22 0
-320 -56 0
-320 -86 0
-320 -82 0
-320 -88 0
-320 -109 0
320 56 86 82 88 109 0
316 317 318 319 320 0
-321 -54 0
-321 98 0
-321 -46 0
-321 -153 0
-321 -67 0
321 54 -98 46 153 67 0
-322 63 0
-322 11 0
-322 -74 0
-322 103 0
-322 -93 0
322 -63 -11 74 -103 93 0
-323 -40 0
-323 145 0
-323 -171 0
-323 -146 0
-323 -100 0
323 40 -145 171 146 100 0
-324 105 0
-324 76 0
-324 -184 0
-324 18 0
-324 -13 0
324 -105 -76 184 -18 13 0
-325 127 0
-325 50 0
-325 -47 0
-325 38 0
-325 125 0
325 -127 -50 47 -38 -125 0
321 322 323 324 325 0
-326 -186 0
-326 159 0
-326 124 0
-326 148 0
-326 -45 0
326 186 -159 -124 -148 45 0
-327 -181 0
-327 40 0
-327 110 0
-327 -99 0
-327 22 0
327 181 -40 -110 99 -22 0
-328 10 0
-328 -108 0
-328 30 0
-328 159 0
-328 72 0
328 -10 108 -30 -159 -72 0
-329 -149 0
-329 86 0
-329 -56 0
-329 -103 0
-329 -151 0
329 149 -86 56 103 151 0
-330 114 0
-330 -27 0
-330 53 0
-330 -161 0
-330 -3 0
330 -114 27 -53 161 3 0
326 327 328 329 330 0
-331 -134 0
-331 -69 0
-331 -140 0
-331 -59 0
-331 -41 0
331 134 69 140 59 41 0
-332 -173 0
-332 12 0
-332 -121 0
-332 101 0
-332 -125 0
332 173 -12 121 -101 125 0
-333 134 0
-333 133 0
-333 78 0
-333 -56 0
-333 -107 0
333 -134 -133 -78 56 107 0
-334 133 0
-334 -146 0
-334 -79 0
-334 81 0
-334 -67 0
334 -133 146 79 -81 67 0
-335 -75 0
-335 145 0
-335 -175 0
-335 -60 0
-335 136 0
335 75 -145 175 60 -136 0
331 332 333 334 335 0
-336 16 0
-336 83 0
-336 82 0
-336 -55 0
-336 44 0
336 -16 -83 -82 55 -44 0
-337 18 0
-337 -162 0
-337 146 0
-337 16 0
-337 -10 0
337 -18 162 -146 -16 10 0
-338 165 0
-338 -111 0
-338 -139 0
-338 -181 0
-338 -113 0
338 -165 111 139 181 113 0
-339 142 0
-339 -170 0
-339 -79 0
-339 -179 0
-339 94 0
339 -142 170 79 179 -94 0
-340 125 0
-340 103 0
-340 152 0
-340 129 0
-340 -94 0
340 -125 -103 -152 -129 94 0
336 337 338 339 340 0
-341 -43 0
-341 -76 0
-341 107 0
-341 124 0
-341 144 0
341 43 76 -107 -124 -144 0
-342 4 0
-342 141 0
-342 -28 0
-342 -132 0
-342 -89 0
342 -4 -141 28 132 89 0
-343 41 0
-343 25 0
-343 184 0
-343 -112 0
-343 63 0
343 -41 -25 -184 112 -63 0
-344 -166 0
-344 176 0
-344 23 0
-344 -112 0
-344 -114 0
344 166 -176 -23 112 114 0
-345 74 0
-345 -84 0
-345 8 0
-345 48 0
-345 91 0
345 -74 84 -8 -48 -91 0
341 342 343 344 345 0
-346 182 0
-346 96 0
-346 169 0
-346 -35 0
-346 -17 0
346 -182 -96 -169 35 17 0
-347 -69 0
-347 132 0
-347 37 0
-347 -157 0
-347 -43 0
347 69 -132 -37 157 43 0
-348 132 0
-348 10 0
-348 -121 0
-348 -12 0
-348 34 0
348 -132 -10 121 12 -34 0
-349 151 0
-349 133 0
-349 11 0
-349 95 0
-349 78 0
349 -151 -133 -11 -95 -78 0
-350 -166 0
-350 -2 0
-350 -1 0
-350 142 0
-350 173 0
350 166 2 1 -142 -173 0
346 347 348 349 350 0
-351 -86 0
-351 55 0
-351 -132 0
-351 -9 0
-351 -19 0
351 86 -55 132 9 19 0
-352 -174 0
-352 -19 0
-352 -83 0
-352 72 0
-352 -110 0
352 174 19 83 -72 110 0
-353 -112 0
-353 34 0
-353 187 0
-353 -29 0
-353 77 0
353 112 -34 -187 29 -77 0
-354 99 0
-354 49 0
-354 13 0
-354 -118 0
-354 -94 0
354 -99 -49 -13 118 94 0
-355 18 0
-355 149 0
-355 -77 0
-355 -121 0
-355 -142 0
355 -18 -149 77 121 142 0
351 352 353 354 355 0
-356 -92 0
-356 185 0
-356 59 0
-356 177 0
-356 123 0
356 92 -185 -59 -177 -123 0
-357 85 0
-357 44 0
-357 15 0
-357 167 0
-357 -43 0
357 -85 -44 -15 -167 43 0
-358 -66 0
-358 153 0
-358 -63 0
-358 51 0
-358 -61 0
358 66 -153 63 -51 61 0
-359 11 0
-359 10 0
-359 -154 0
-359 114 0
-359 -57 0
359 -11 -10 154 -114 57 0
-360 162 0
-360 -188 0
-360 99 0
-360 160 0
-360 -38 0
360 -162 188 -99 -160 38 0
356 357 358 359 360 0
-361 101 0
-361 -118 0
-361 -55 0
-361 -78 0
-361 176 0
361 -101 118 55 78 -176 0
-362 -78 0
-362 -167 0
-362 -133 0
-362 -88 0
-362 -119 0
362 78 167 133 88 119 0
-363 -156 0
-363 28 0
-363 -37 0
-363 56 0
-363 172 0
363 156 -28 37 -56 -172 0
-364 -78 0
-364 175 0
-364 -81 0
-364 86 0
-364 54 0
364 78 -175 81 -86 -54 0
-365 -183 0
-365 -83 0
-365 -132 0
-365 33 0
-365 -3 0
365 183 83 132 -33 3 0
361 362 363 364 365 0
-366 -42 0
-366 -179 0
-366 -103 0
-366 122 0
-366 34 0
366 42 179 103 -122 -34 0
-367 -22 0
-367 -69 0
-367 143 0
-367 -87 0
-367 39 0
367 22 69 -143 87 -39 0
-368 101 0
-368 12 0
-368 -6 0
-368 14 0
-368 -176 0
368 -101 -12 6 -14 176 0
-369 -106 0
-369 -11 0
-369 67 0
-369 92 0
-369 133 0
369 106 11 -67 -92 -133 0
-370 -133 0
-370 184 0
-370 -25 0
-370 26 0
-370 124 0
370 133 -184 25 -26 -124 0
366 367 368 369 370 0
-371 152 0
-371 -177 0
-371 -125 0
-371 153 0
-371 96 0
371 -152 177 125 -153 -96 0
-372 -135 0
-372 19 0
-372 104 0
-372 57 0
-372 -35 0
372 135 -19 -104 -57 35 0
-373 -94 0
-373 -113 0
-373 -5 0
-373 123 0
-373 92 0
373 94 113 5 -123 -92 0
-374 171 0
-374 -34 0
-374 72 0
-374 -190 0
-374 71 0
374 -171 34 -72 190 -71 0
-375 115 0
-375 -139 0
-375 24 0
-375 -109 0
-375 -110 0
375 -115 139 -24 109 110 0
371 372 373 374 375 0
-376 27 0
-376 87 0
-376 60 0
-376 82 0
-376 16 0
376 -27 -87 -60 -82 -16 0
-377 -168 0
-377 -187 0
-377 79 0
-377 -126 0
-377 -42 0
377 168 187 -79 126 42 0
-378 67 0
-378 -98 0
-378 184 0
-378 35 0
-378 65 0
378 -67 98 -184 -35 -65 0
-379 -53 0
-379 -101 0
-379 174 0
-379 110 0
-379 -16 0
379 53 101 -174 -110 16 0
-380 -70 0
-380 -27 0
-380 84 0
-380 54 0
-380 145 0
380 70 27 -84 -54 -145 0
376 377 378 379 380 0
-381 154 0
-381 99 0
-381 42 0
-381 -40 0
-381 -61 0
381 -154 -99 -42 40 61 0
-382 93 0
-382 51 0
-382 176 0
-382 55 0
-382 81 0
382 -93 -51 -176 -55 -81 0
-383 -6 0
-383 45 0
-383 -119 0
-383 57 0
-383 -2 0
383 6 -45 119 -57 2 0
-384 -115 0
-384 -99 0
-384 -169 0
-384 6 0
-384 -117 0
384 115 99 169 -6 117 0
-385 80 0
-385 183 0
-385 158 0
-385 -169 0
-385 -52 0
385 -80 -183 -158 169 52 0
381 382 383 384 385 0
-386 25 0
-386 -96 0
-386 70 0
-386 171 0
-386 92 0
386 -25 96 -70 -171 -92 0
-387 65 0
-387 72 0
-387 -89 0
-387 122 0
-387 44 0
387 -65 -72 89 -122 -44 0
-388 -1 0
-388 -140 0
-388 160 0
-388 -124 0
-388 -76 0
388 1 140 -160 124 76 0
-389 -69 0
-389 -103 0
-389 -113 0
-389 -97 0
-389 21 0
389 69 103 113 97 -21 0
-390 -155 0
-390 108 0
-390 111 0
-390 181 0
-390 -176 0
390 155 -108 -111 -181 176 0
386 387 388 389 390 0
-391 -41 0
-391 21 0
-391 68 0
-391 -40 0
-391 -83 0
391 41 -21 -68 40 83 0
-392 63 0
-392 -6 0
-392 166 0
-392 -67 0
-392 -96 0
392 -63 6 -166 67 96 0
-393 121 0
-393 -27 0
-393 67 0
-393 -95 0
-393 108 0
393 -121 27 -67 95 -108 0
-394 105 0
-394 40 0
-394 -8 0
-394 -15 0
-394 42 0
394 -105 -40 8 15 -42 0
-395 -21 0
-395 125 0
-395 110 0
-395 -133 0
-395 -105 0
395 21 -125 -110 133 105 0
391 392 393 394 395 0
-396 125 0
-396 -173 0
-396 14 0
-396 36 0
-396 -128 0
396 -125 173 -14 -36 128 0
-397 -150 0
-397 -140 0
-397 47 0
-397 75 0
-397 -72 0
397 150 140 -47 -75 72 0
-398 8 0
-398 135 0
-398 -55 0
-398 -137 0
-398 110 0
398 -8 -135 55 137 -110 0
-399 153 0
-399 36 0
-399 45 0
-399 -157 0
-399 -103 0
399 -153 -36 -45 157 103 0
-400 -137 0
-400 -85 0
-400 -7 0
-400 -23 0
-400 172 0
400 137 85 7 23 -172 0
396 397 398 399 400 0
-401 28 0
-401 13 0
-401 22 0
-401 94 0
-401 71 0
401 -28 -13 -22 -94 -71 0
-402 186 0
-402 -85 0
-402 -20 0
-402 -60 0
-402 -141 0
402 -186 85 20 60 141 0
-403 -111 0
-403 -116 0
-403 -130 0
-403 74 0
-403 162 0
403 111 116 130 -74 -162 0
-404 160 0
-404 133 0
-404 25 0
-404 -144 0
-404 29 0
404 -160 -133 -25 144 -29 0
-405 -117 0
-405 139 0
-405 -172 0
-405 -84 0
-405 38 0
405 117 -139 172 84 -38 0
401 402 403 404 405 0
-406 -48 0
-406 -170 0
-406 -52 0
-406 180 0
-406 153 0
406 48 170 52 -180 -153 0
-407 -77 0
-407 -36 0
-407 108 0
-407 132 0
-407 -129 0
407 77 36 -108 -132 129 0
-408 107 0
-408 -72 0
-408 -88 0
-408 98 0
-408 187 0
408 -107 72 88 -98 -187 0
-409 141 0
-409 62 0
-409 42 0
-409 43 0
-409 -63 0
409 -141 -62 -42 -43 63 0
-410 -4 0
-410 173 0
-410 -116 0
-410 -100 0
-410 -70 0
410 4 -173 116 100 70 0
406 407 408 409 410 0
-411 84 0
-411 -101 0
-411 17 0
-411 130 0
-411 25 0
411 -84 101 -17 -130 -25 0
-412 162 0
-412 -94 0
-412 -93 0
-412 109 0
-412 110 0
412 -162 94 93 -109 -110 0
-413 146 0
-413 178 0
-413 -63 0
-413 -190 0
-413 85 0
413 -146 -178 63 190 -85 0
-414 -189 0
-414 184 0
-414 133 0
-414 -129 0
-414 105 0
414 189 -184 -133 129 -105 0
-415 164 0
-415 -74 0
-415 185 0
-415 -135 0
-415 -186 0
415 -164 74 -185 135 186 0
411 412 413 414 415 0
-416 -85 0
-416 1 0
-416 51 0
-416 59 0
-416 131 0
416 85 -1 -51 -59 -131 0
-417 -141 0
-417 57 0
-417 3 0
-417 2 0
-417 13 0
417 141 -57 -3 -2 -13 0
-418 158 0
-418 110 0
-418 29 0
-418 128 0
-418 -82 0
418 -158 -110 -29 -128 82 0
-419 61 0
-419 49 0
-419 -152 0
-419 78 0
-419 -32 0
419 -61 -49 152 -78 32 0
-420 125 0
-420 111 0
-420 -50 0
-420 122 0
-420 -150 0
420 -125 -111 50 -122 150 0
416 417 418 419 420 0
-421 129 0
-421 -74 0
-421 -159 0
-421 41 0
-421 -75 0
421 -129 74 159 -41 75 0
-422 -9 0
-422 93 0
-422 -84 0
-422 61 0
-422 -63 0
422 9 -93 84 -61 63 0
-423 -138 0
-423 161 0
-423 183 0
-423 51 0
-423 94 0
423 138 -161 -183 -51 -94 0
-424 155 0
-424 136 0
-424 -101 0
-424 106 0
-424 184 0
424 -155 -136 101 -106 -184 0
-425 153 0
-425 -169 0
-425 99 0
-425 -41 0
-425 -65 0
425 -153 169 -99 41 65 0
421 422 423 424 425 0
-426 -182 0
-426 10 0
-426 -33 0
-426 52 0
-426 -68 0
426 182 -10 33 -52 68 0
-427 18 0
-427 115 0
-427 84 0
-427 -49 0
-427 100 0
427 -18 -115 -84 49 -100 0
-428 -79 0
-428 -174 0
-428 -179 0
-428 -11 0
-428 99 0
428 79 174 179 11 -99 0
-429 32 0
-429 129 0
-429 -131 0
-429 -168 0
-429 58 0
429 -32 -129 131 168 -58 0
-430 50 0
-430 45 0
-430 -147 0
-430 -38 0
-430 -105 0
430 -50 -45 147 38 105 0
426 427 428 429 430 0
